NAME          BLANK   
ROWS
 N  OBJROW
 L  R0000000
COLUMNS
    C0000000  OBJROW     -578.         R0000000  448.        
    C0000001  OBJROW     -152.         R0000000  617.        
    C0000002  OBJROW     -731.         R0000000  274.        
    C0000003  OBJROW     -648.         R0000000  681.        
    C0000004  OBJROW     -859.         R0000000  498.        
    C0000005  OBJROW     -312.         R0000000  823.        
    C0000006  OBJROW     -859.         R0000000  108.        
    C0000007  OBJROW     -368.         R0000000  823.        
    C0000008  OBJROW     -547.         R0000000  890.        
    C0000009  OBJROW     -384.         R0000000  104.        
    C0000010  OBJROW     -435.         R0000000  403.        
    C0000011  OBJROW     -696.         R0000000  24.         
    C0000012  OBJROW     -339.         R0000000  9.          
    C0000013  OBJROW     -518.         R0000000  410.        
    C0000014  OBJROW     -693.         R0000000  439.        
    C0000015  OBJROW     -606.         R0000000  515.        
    C0000016  OBJROW     -77.          R0000000  40.         
    C0000017  OBJROW     -214.         R0000000  857.        
    C0000018  OBJROW     -915.         R0000000  626.        
    C0000019  OBJROW     -255.         R0000000  423.        
RHS
    RHS       R0000000  4506.       
BOUNDS
 BV BOUND     C0000000  1.          
 BV BOUND     C0000001  1.          
 BV BOUND     C0000002  1.          
 BV BOUND     C0000003  1.          
 BV BOUND     C0000004  1.          
 BV BOUND     C0000005  1.          
 BV BOUND     C0000006  1.          
 BV BOUND     C0000007  1.          
 BV BOUND     C0000008  1.          
 BV BOUND     C0000009  1.          
 BV BOUND     C0000010  1.          
 BV BOUND     C0000011  1.          
 BV BOUND     C0000012  1.          
 BV BOUND     C0000013  1.          
 BV BOUND     C0000014  1.          
 BV BOUND     C0000015  1.          
 BV BOUND     C0000016  1.          
 BV BOUND     C0000017  1.          
 BV BOUND     C0000018  1.          
 BV BOUND     C0000019  1.          
ENDATA
